NAME: generated_7_sym_1_100_UniformDistrib_noSparse.tsp
TYPE: TSP
COMMENT: Test case generated with custom generator!
DIMENSION: 7
EDGE_WEIGHT_TYPE: EXPLICIT
EDGE_WEIGHT_FORMAT: FULL_MATRIX
DISPLAY_DATA_TYPE: TWOD_DISPLAY
EDGE_WEIGHT_SECTION
0 89 14 46 2 44 35 
89 0 53 54 31 86 78 
14 53 0 91 8 92 76 
46 54 91 0 67 49 27 
2 31 8 67 0 43 64 
44 86 92 49 43 0 95 
35 78 76 27 64 95 0 
